p cnf 20 26
a 10 19 18 0
e 16 0
a 2 20 0
e 8 0
a 13 5 12 0
e 14 17 6 4 1 15 0
a 11 0
e 3 0
a 7 0
e 9 0
2 0
17 0
7 10 -20 13 -14 -9 -4 0
19 2 -13 -5 0
8 0
-8 18 0
13 0
10 -11 0
16 -5 -3 0
7 0
4 5 0
-4 5 6 0
-18 0
-16 17 6 0
-16 -11 15 0
6 0
3 4 0
10 -18 0
-7 19 0
16 -8 -14 5 0
-8 0
2 0
3 14 16 17 -10 -8 -5 0
7 0
19 0
10 3 -11 0
